Linux optc-09-02 4.15.0-58-generic #64-Ubuntu SMP Tue Aug 6 11:12:41 UTC 2019 x86_64 x86_64 x86_64 GNU/Linux

top - 17:13:43 up 1 day,  7:14,  0 users,  load average: 1,00, 1,00, 1,00
Tasks: 289 gesamt,   1 laufend, 149 schlafend,   0 gestoppt,   0 Zombie
%CPU(s):  7,4 be,  0,2 sy,  0,0 ni, 92,4 un,  0,0 wa,  0,0 hi,  0,0 si,  0,0 st
KiB Spch : 97514992 gesamt, 95547072 frei,   646656 belegt,  1321264 Puff/Cache
KiB Swap:  8388604 gesamt,  8388604 frei,        0 belegt. 96126736 verfü Spch 

  PID USER      PR  NI    VIRT    RES    SHR S  %CPU %MEM     ZEIT+ BEFEHL
22218 bzfhende  20   0   52664   4044   3296 R   6,7  0,0   0:00.01 top
    1 root      20   0  233840   9452   6724 S   0,0  0,0   0:10.47 systemd
    2 root      20   0       0      0      0 S   0,0  0,0   0:00.11 kthreadd
    4 root       0 -20       0      0      0 I   0,0  0,0   0:00.00 kworker/0:+
    6 root      20   0       0      0      0 I   0,0  0,0   0:00.00 kworker/u3+
    7 root       0 -20       0      0      0 I   0,0  0,0   0:00.00 mm_percpu_+
    8 root      20   0       0      0      0 S   0,0  0,0   0:00.09 ksoftirqd/0
    9 root      20   0       0      0      0 I   0,0  0,0   0:10.86 rcu_sched

hard time limit: 04:10:00
hard mem limit: 55100

SLURM jobID: 2182360

@01 /nfs/optimi/kombadon/IP/miplib2017/neos-5114902-kasavu.mps.gz ===========
-----------------------------
Do 22. Aug 17:13:43 CEST 2019
-----------------------------
@03 1566486823
@05 7200
SCIP version 6.0.0 [precision: 8 byte] [memory: block] [mode: optimized] [LP solver: CPLEX 12.8.0.0] [GitHash: 41ab6e0014]
Copyright (C) 2002-2018 Konrad-Zuse-Zentrum fuer Informationstechnik Berlin (ZIB)

External codes: 
  Readline 7.0         GNU library for command line editing (gnu.org/s/readline)
  CPLEX 12.8.0.0       Linear Programming Solver developed by IBM (www.cplex.com)
  CppAD 20180000.0     Algorithmic Differentiation of C++ algorithms developed by B. Bell (www.coin-or.org/CppAD)
  ZLIB 1.2.11          General purpose compression library by J. Gailly and M. Adler (zlib.net)
  GMP 6.1.2            GNU Multiple Precision Arithmetic Library developed by T. Granlund (gmplib.org)
  bliss 0.73p          Computing Graph Automorphism Groups by T. Junttila and P. Kaski (http://www.tcs.hut.fi/Software/bliss/)

user parameter file <scip.set> not found - using default parameters

SCIP> 
SCIP> set load /home/optimi/bzfhende/opti/scip-opti/check/../settings/enable_treeeprofile.set
loaded parameter file </home/optimi/bzfhende/opti/scip-opti/check/../settings/enable_treeprofile.set>
SCIP> set misc referencevalue 655
misc/referencevalue = 655
SCIP> set limits time 7200
limits/time = 7200
SCIP> set limits nodes 2100000000
limits/nodes = 2100000000
SCIP> set limits memory 50000
limits/memory = 50000
SCIP> set lp advanced threads 1
lp/threads = 1
SCIP> set timing clocktype 1
timing/clocktype = 1
SCIP> set display freq 10000
display/freq = 10000
SCIP> set memory savefac 1.0
memory/savefac = 1
SCIP> set save /home/optimi/bzfhende/opti/scip-opti/check/treesize.estimation.jouurnal.3/bzfhende.miplib2017.136_neos-5114902-kasavu.scip.M640.enable_treeprofile..set
saved parameter file </home/optimi/bzfhende/opti/scip-opti/check/treesize.estimation.journal.3/bzfhende.miplib2017.136_neos-5114902-kasavu.scip.M640.enable_treeprofile.set>
SCIP> read /nfs/optimi/kombadon/IP/miplib2017/neos-5114902-kasavu.mps.gz

read problem </nfs/optimi/kombadon/IP/miplib2017/neos-5114902-kasavu.mps.gz>
============

original problem has 710164 variables (14560 bin, 0 int, 0 impl, 695604 cont) and 961170 constraints
SCIP> display parameters

number of parameters = 2448
non-default parameter settings:
display/freq = 10000
limits/time = 7200
limits/nodes = 2100000000
limits/memory = 50000
lp/threads = 1
memory/savefac = 1
misc/referencevalue = 655
presolving/maxrestarts = 0
estimates/profile/enabled = TRUE
estimates/profile/maxdepthfactor = 10
estimates/profile/freq = 0

SCIP> optimize

Activating tree profile data collection
presolving:
(round 1, fast)       3458 del vars, 3458 del conss, 0 add conss, 695604 chg bounds, 0 chg sides, 0 chg coeffs, 0 upgd conss, 0 impls, 3724 clqs
(round 2, fast)       3458 del vars, 3458 del conss, 0 add conss, 718172 chg bounds, 0 chg sides, 0 chg coeffs, 0 upgd conss, 338884 impls, 3724 clqs
(round 3, exhaustive) 3458 del vars, 7182 del conss, 0 add conss, 718172 chg bounds, 0 chg sides, 0 chg coeffs, 0 upgd conss, 338884 impls, 3724 clqs
(round 4, exhaustive) 3458 del vars, 7182 del conss, 0 add conss, 718172 chg bounds, 0 chg sides, 0 chg coeffs, 684236 upgd conss, 338884 impls, 3724 clqs
(round 5, medium)     3458 del vars, 10710 del conss, 2352 add conss, 718172 chg bounds, 2352 chg sides, 4704 chg coeffs, 684236 upgd conss, 1016652 impls, 3724 clqs
   (18.0s) sparsify finished: 4368/4221308 (0.1%) nonzeros canceled - in total 4368 canceled nonzeros, 8736 changed coefficients, 0 added nonzeros
   (85.3s) probing: 1000/11102 (9.0%) - 0 fixings, 0 aggregations, 113902 implications, 0 bound changes
   (85.4s) probing: 1001/11102 (9.0%) - 0 fixings, 0 aggregations, 114008 implications, 0 bound changes
   (85.4s) probing aborted: 1000/1000 successive useless probings
presolving (6 rounds: 6 fast, 4 medium, 3 exhaustive):
 3458 deleted vars, 10710 deleted constraints, 2352 added constraints, 718172 tightened bounds, 0 added holes, 2352 changed sides, 13440 changed coefficients
 1130660 implications, 3724 cliques
presolved problem has 706706 variables (11102 bin, 0 int, 0 impl, 695604 cont) and 952812 constraints
 677768 constraints of type <varbound>
    224 constraints of type <knapsack>
   3724 constraints of type <setppc>
 271096 constraints of type <linear>
Presolving Time: 83.70

 time | node  | left  |LP iter|LP it/n| mem |mdpt |frac |vars |cons |cols |rows |cuts |confs|strbr|  dualbound   | primalbound  |  gap   
 95.6s|     1 |     0 |  9898 |     - |4363M|   0 | 259 | 706k| 952k| 706k| 952k|   0 |  69 |   0 | 5.180000e+02 |      --      |    Inf 
  129s|     1 |     0 | 24979 |     - |4575M|   0 | 718 | 706k| 952k| 706k| 953k| 259 |  69 |   0 | 5.470000e+02 |      --      |    Inf 
  137s|     1 |     0 | 29682 |     - |4680M|   0 | 892 | 706k| 952k| 706k| 953k| 513 |  69 |   0 | 6.050000e+02 |      --      |    Inf 
  146s|     1 |     0 | 31662 |     - |4799M|   0 | 902 | 706k| 952k| 706k| 953k| 694 |  69 |   0 | 6.050000e+02 |      --      |    Inf 
  154s|     1 |     0 | 32183 |     - |4912M|   0 | 849 | 706k| 952k| 706k| 953k| 755 |  69 |   0 | 6.050000e+02 |      --      |    Inf 
  162s|     1 |     0 | 32209 |     - |5019M|   0 | 847 | 706k| 952k| 706k| 953k| 771 |  69 |   0 | 6.050000e+02 |      --      |    Inf 
  170s|     1 |     0 | 33256 |     - |5134M|   0 | 841 | 706k| 952k| 706k| 953k| 893 |  70 |   0 | 6.063333e+02 |      --      |    Inf 
  177s|     1 |     0 | 33614 |     - |5243M|   0 | 848 | 706k| 952k| 706k| 953k| 943 |  70 |   0 | 6.076667e+02 |      --      |    Inf 
  186s|     1 |     0 | 35680 |     - |5350M|   0 | 986 | 706k| 952k| 706k| 953k|1018 |  70 |   0 | 6.145000e+02 |      --      |    Inf 
  195s|     1 |     0 | 36230 |     - |5461M|   0 | 993 | 706k| 952k| 706k| 953k|1148 |  70 |   0 | 6.174000e+02 |      --      |    Inf 
  203s|     1 |     0 | 36504 |     - |5573M|   0 |1039 | 706k| 952k| 706k| 953k|1185 |  70 |   0 | 6.182333e+02 |      --      |    Inf 
  213s|     1 |     0 | 39429 |     - |5676M|   0 |1075 | 706k| 952k| 706k| 954k|1245 |  70 |   0 | 6.220778e+02 |      --      |    Inf 
  221s|     1 |     0 | 39729 |     - |5780M|   0 |1023 | 706k| 952k| 706k| 954k|1320 |  70 |   0 | 6.232444e+02 |      --      |    Inf 
  229s|     1 |     0 | 40057 |     - |5884M|   0 |1026 | 706k| 952k| 706k| 954k|1348 |  70 |   0 | 6.233000e+02 |      --      |    Inf 
  237s|     1 |     0 | 40145 |     - |5987M|   0 |1030 | 706k| 952k| 706k| 954k|1353 |  70 |   0 | 6.233833e+02 |      --      |    Inf 
 time | node  | left  |LP iter|LP it/n| mem |mdpt |frac |vars |cons |cols |rows |cuts |confs|strbr|  dualbound   | primalbound  |  gap   
  245s|     1 |     0 | 40149 |     - |6090M|   0 |1030 | 706k| 952k| 706k| 954k|1357 |  70 |   0 | 6.233833e+02 |      --      |    Inf 
SCIP nodes: 1 Estimation: -1
  330s|     1 |     2 | 42043 |     - |6253M|   0 |1030 | 706k| 952k| 706k| 954k|1357 |  70 |  33 | 6.243833e+02 |      --      |    Inf 
   (332.4s) symmetry computation started: requiring (bin +, int -, cont -), (fixed: bin -, int +, cont -)
   (335.9s) no symmetry present
SCIP nodes: 2 Estimation: -1
SCIP nodes: 4 Estimation: -1
SCIP nodes: 8 Estimation: -1
SCIP nodes: 16 Estimation: -1
SCIP nodes: 32 Estimation: -1
SCIP nodes: 64 Estimation: -1
SCIP nodes: 128 Estimation: -1
SCIP nodes: 256 Estimation: -1
z1154s|   302 |   283 | 75318 | 116.8 |9617M| 201 |   - | 706k| 952k| 706k| 953k|1787 |  75 | 541 | 6.243833e+02 | 6.840000e+02 |   9.55%
z1177s|   335 |   256 | 76577 | 109.1 |9622M| 201 |   - | 706k| 952k| 706k| 953k|1813 |  75 | 541 | 6.243833e+02 | 6.750000e+02 |   8.11%
z1218s|   389 |   281 | 79349 | 101.0 |9643M| 201 |   - | 706k| 952k| 706k| 953k|1816 |  75 | 550 | 6.243833e+02 | 6.740000e+02 |   7.95%
R1220s|   390 |   244 | 79350 | 100.8 |9653M| 201 |   - | 706k| 952k| 706k| 953k|1816 |  75 | 550 | 6.243833e+02 | 6.720000e+02 |   7.63%
L1310s|   436 |   233 | 89538 | 113.5 |9946M| 201 |  75 | 706k| 952k| 706k| 953k|1993 |  79 | 569 | 6.254944e+02 | 6.690000e+02 |   6.96%
L1310s|   436 |   155 | 89538 | 113.5 |9956M| 201 |   - | 706k| 952k| 706k| 953k|1993 |  79 | 569 | 6.254944e+02 | 6.650000e+02 |   6.32%
SCIP nodes: 512 Estimation: -1
C1622s|   636 |   192 |115283 | 118.3 |  10G| 201 |1012 | 706k| 952k| 706k| 953k|2600 |  89 | 628 | 6.269944e+02 | 6.640000e+02 |   5.90%
SCIP nodes: 1024 Estimation: -1
SCIP nodes: 2048 Estimation: 1.12019e+20

SCIP Status        : solving was interrupted [time limit reached]
Solving Time (sec) : 7200.04
Solving Nodes      : 2917
Primal Bound       : +6.64000000000000e+02 (11 solutions)
Dual Bound         : +6.30772222222222e+02
Gap                : 5.27 %

SCIP> display statistics

SCIP Status        : solving was interrupted [time limit reached]
Total Time         :    7203.37
  solving          :    7200.04
  presolving       :      83.70 (included in solving)
  reading          :       3.33
  copying          :      36.95 (16 #copies) (minimal 2.20, maximal 2.33, average 2.31)
Original Problem   :
  Problem name     : neos-5114902-kasavu
  Variables        : 710164 (14560 binary, 0 integer, 0 implicit integer, 695604 continuous)
  Constraints      : 961170 initial, 961170 maximal
  Objective        : minimize, 677768 non-zeros (abs.min = 1, abs.max = 1)
Presolved Problem  :
  Problem name     : t_neos-5114902-kasavu
  Variables        : 706706 (11102 binary, 0 integer, 0 implicit integer, 695604 continuous)
  Constraints      : 952812 initial, 953394 maximal
  Objective        : minimize, 677768 non-zeros (abs.min = 1, abs.max = 1)
Presolvers         :   ExecTime  SetupTime  Calls  FixedVars   AggrVars   ChgTypes  ChgBounds   AddHoles    DelCons    AddCons   ChgSides   ChgCoefs
  boundshift       :       0.00       0.00      0          0          0          0          0          0          0          0          0          0
  convertinttobin  :       0.00       0.00      0          0          0          0          0          0          0          0          0          0
  domcol           :       0.68       0.00      1          0          0          0          0          0          0          0          0          0
  dualagg          :       0.00       0.00      0          0          0          0          0          0          0          0          0          0
  dualcomp         :       0.58       0.00      1          0          0          0          0          0          0          0          0          0
  dualinfer        :       0.00       0.00      0          0          0          0          0          0          0          0          0          0
  gateextraction   :       0.00       0.00      0          0          0          0          0          0          0          0          0          0
  implics          :       0.00       0.00      4          0          0          0          0          0          0          0          0          0
  inttobinary      :       0.00       0.00      0          0          0          0          0          0          0          0          0          0
  qpkktref         :       0.00       0.00      0          0          0          0          0          0          0          0          0          0
  redvub           :       0.00       0.00      0          0          0          0          0          0          0          0          0          0
  sparsify         :       4.25       0.00      1          0          0          0          0          0          0          0          0       8736
  stuffing         :       0.00       0.00      0          0          0          0          0          0          0          0          0          0
  symbreak         :       0.00       0.00      0          0          0          0          0          0          0          0          0          0
  symmetry         :       0.00       0.00      0          0          0          0          0          0          0          0          0          0
  trivial          :       0.09       0.00      6          0          0          0          0          0          0          0          0          0
  tworowbnd        :       0.00       0.00      0          0          0          0          0          0          0          0          0          0
  dualfix          :       0.15       0.00      6          0          0          0          0          0          0          0          0          0
  genvbounds       :       0.00       0.00      0          0          0          0          0          0          0          0          0          0
  orbitalfixing    :       0.00       0.00      0          0          0          0          0          0          0          0          0          0
  probing          :      67.37       0.02      1          0          0          0          0          0          0          0          0          0
  pseudoobj        :       0.00       0.00      0          0          0          0          0          0          0          0          0          0
  vbounds          :       0.00       0.00      1          0          0          0          0          0          0          0          0          0
  varbound         :       0.78       0.00      4          0          0          0          0          0          0          0          0          0
  knapsack         :       0.02       0.00      5          0          0          0          0          0       1176       2352       2352       4704
  setppc           :       0.02       0.00      5          0          0          0          0          0       2352          0          0          0
  linear           :       7.84       0.72      9          0       3458          0     718172          0       7182          0          0          0
  logicor          :       0.00       0.00      0          0          0          0          0          0          0          0          0          0
  bounddisjunction :       0.00       0.00      0          0          0          0          0          0          0          0          0          0
  benders          :       0.00       0.00      0          0          0          0          0          0          0          0          0          0
  components       :       0.60       0.00      1          0          0          0          0          0          0          0          0          0
  root node        :          -          -      -          0          -          -          0          -          -          -          -          -
Constraints        :     Number  MaxNumber  #Separate #Propagate    #EnfoLP    #EnfoRelax  #EnfoPS    #Check   #ResProp    Cutoffs    DomReds       Cuts    Applied      Conss   Children
  benderslp        :          0          0          0          0       2297          0          0        310          0          0          0          0          0          0          0
  integral         :          0          0          0          0       2297          0          0        310          0          0       7471          0          0         73       4328
  varbound         :     677768     677768         16     110971          0          0          0        304       2774          1    1528069          0          0          0          0
  knapsack         :        224        224         16     110970          0          0          0         24        126          5          4          0          0          0          0
  setppc           :       3724+      3817         16     110965          0          0          0         22        637          1        281          0          0          0          0
  linear           :     271096+    271103         16     110964          0          0          0         22      11074       2348     461913          0          0          0          0
  logicor          :          0+       418         16       1856          0          0          0          0         80         42        195          0          0          0          0
  bounddisjunction :          0+        67          0        744          0          0          0          0          0          0          0          0          0          0          0
  benders          :          0          0          0          0          0          0          0         12          0          0          0          0          0          0          0
  countsols        :          0          0          0          0          0          0          0         12          0          0          0          0          0          0          0
  components       :          0          0          0          0          0          0          0          0          0          0          0          0          0          0          0
Constraint Timings :  TotalTime  SetupTime   Separate  Propagate     EnfoLP     EnfoPS     EnfoRelax   Check    ResProp    SB-Prop
  benderslp        :       0.00       0.00       0.00       0.00       0.00       0.00       0.00       0.00       0.00       0.00
  integral         :    1594.29       0.00       0.00       0.00    1594.29       0.00       0.00       0.00       0.00       0.00
  varbound         :      13.93       0.00       3.10       6.57       0.00       0.00       0.00       3.76       0.00       0.50
  knapsack         :       0.19       0.00       0.03       0.15       0.00       0.00       0.00       0.00       0.00       0.01
  setppc           :       0.21       0.00       0.00       0.19       0.00       0.00       0.00       0.01       0.00       0.01
  linear           :      24.78       0.72      10.62      10.45       0.00       0.00       0.00       2.21       0.04       0.74
  logicor          :       0.01       0.00       0.00       0.01       0.00       0.00       0.00       0.00       0.00       0.00
  bounddisjunction :       0.02       0.00       0.00       0.01       0.00       0.00       0.00       0.00       0.00       0.01
  benders          :       0.00       0.00       0.00       0.00       0.00       0.00       0.00       0.00       0.00       0.00
  countsols        :       0.00       0.00       0.00       0.00       0.00       0.00       0.00       0.00       0.00       0.00
  components       :       0.02       0.00       0.00       0.01       0.00       0.00       0.00       0.00       0.00       0.01
Propagators        : #Propagate   #ResProp    Cutoffs    DomReds
  dualfix          :          1          0          0          0
  genvbounds       :          0          0          0          0
  nlobbt           :          0          0          0          0
  obbt             :          0          0          0          0
  orbitalfixing    :          1          0          0          0
  probing          :          0          0          0          0
  pseudoobj        :      12412          0          0          0
  redcost          :       5466          0          0      17566
  rootredcost      :          7          0          0          0
  vbounds          :     108271          0          0          0
Propagator Timings :  TotalTime  SetupTime   Presolve  Propagate    ResProp    SB-Prop
  dualfix          :       0.17       0.00       0.15       0.02       0.00       0.00
  genvbounds       :       0.09       0.00       0.00       0.09       0.00       0.00
  nlobbt           :       0.00       0.00       0.00       0.00       0.00       0.00
  obbt             :       0.00       0.00       0.00       0.00       0.00       0.00
  orbitalfixing    :       3.59       0.00       0.00       3.59       0.00       0.00
  probing          :      67.39       0.02      67.37       0.00       0.00       0.00
  pseudoobj        :       3.10       0.00       0.00       3.07       0.00       0.03
  redcost          :     147.46       0.00       0.00     147.46       0.00       0.00
  rootredcost      :       0.36       0.00       0.00       0.36       0.00       0.00
  vbounds          :       0.86       0.00       0.00       0.86       0.00       0.00
Conflict Analysis  :       Time      Calls    Success    DomReds  Conflicts   Literals    Reconvs ReconvLits   Dualrays   Nonzeros   LP Iters   (pool size: [10000,10000])
  propagation      :       0.00        129        118          -        212       21.6        109        8.4          -          -          -
  infeasible LP    :       0.57         10          8          -          7        4.1          0        0.0          8       17.0          0
  bound exceed. LP :      41.93        117         97          -        480       56.9         97        3.5          0        0.0       1070
  strong branching :       0.00          0          0          -          0        0.0          0        0.0          -          -          0
  pseudo solution  :       0.00          0          0          -          0        0.0          0        0.0          -          -          -
  applied globally :       0.02          -          -          0        576       26.5          -          -          8          -          -
  applied locally  :          -          -          -          0         10       44.9          -          -          0          -          -
Separators         :   ExecTime  SetupTime      Calls    Cutoffs    DomReds       Cuts    Applied      Conss
  cut pool         :       4.98                   629          -          -       8785          -          -    (maximal pool size: 4264)
  aggregation      :      84.90       0.00        138          0          0          0          0          0
  cgmip            :       0.00       0.00          0          0          0          0          0          0
  clique           :       0.03       0.00         16          0          0          0          0          0
  closecuts        :       0.00       0.00          0          0          0          0          0          0
  cmir             :       0.00       0.00          0          0          0          0        356          0
  convexproj       :       0.00       0.00          0          0          0          0          0          0
  disjunctive      :       0.00       0.00          0          0          0          0          0          0
  eccuts           :       0.00       0.00          0          0          0          0          0          0
  flowcover        :       0.00       0.00          0          0          0          0          0          0
  gauge            :       0.00       0.00          0          0          0          0          0          0
  gomory           :      32.90       0.00        132          0          0          0        653          0
  impliedbounds    :       3.97       0.00        138          0          0          0       7083          0
  intobj           :       0.00       0.00          0          0          0          0          0          0
  mcf              :       2.30       0.00          1          0          0          0          0          0
  oddcycle         :       0.00       0.00          0          0          0          0          0          0
  rapidlearning    :       0.00       0.00          0          0          0          0          0          0
  strongcg         :      59.16       0.00         16          0          0          0          6          0
  zerohalf         :      71.92       0.00        138          0          0          0        146          0
Pricers            :   ExecTime  SetupTime      Calls       Vars
  problem variables:       0.00          -          0          0
Branching Rules    :   ExecTime  SetupTime   BranchLP  BranchExt   BranchPS    Cutoffs    DomReds       Cuts      Conss   Children
  allfullstrong    :       0.00       0.00          0          0          0          0          0          0          0          0
  cloud            :       0.00       0.00          0          0          0          0          0          0          0          0
  distribution     :       0.00       0.00          0          0          0          0          0          0          0          0
  fullstrong       :       0.00       0.00          0          0          0          0          0          0          0          0
  inference        :       0.00       0.00          0          0          0          0          0          0          0          0
  leastinf         :       0.00       0.00          0          0          0          0          0          0          0          0
  lookahead        :       0.00       0.00          0          0          0          0          0          0          0          0
  mostinf          :       0.00       0.00          0          0          0          0          0          0          0          0
  multaggr         :       0.00       0.00          0          0          0          0          0          0          0          0
  nodereopt        :       0.00       0.00          0          0          0          0          0          0          0          0
  pscost           :       0.00       0.00          0          0          0          0          0          0          0          0
  random           :       0.00       0.00          0          0          0          0          0          0          0          0
  relpscost        :    1594.28       0.00       2297          0          0          0       7471          0         73       4328
Primal Heuristics  :   ExecTime  SetupTime      Calls      Found       Best
  LP solutions     :       0.00          -          -          0          0
  relax solutions  :       0.00          -          -          0          0
  pseudo solutions :       0.00          -          -          0          0
  strong branching :       0.03          -          -          0          0
  actconsdiving    :       0.00       0.00          0          0          0
  alns             :      61.67       0.00          4          2          2
  bound            :       0.00       0.00          0          0          0
  clique           :       1.63       0.00          1          0          0
  coefdiving       :      21.10       0.00          7          0          0
  completesol      :       0.00       0.00          0          0          0
  conflictdiving   :       0.00       0.00          0          0          0
  crossover        :      31.63       0.00          3          2          1
  dins             :       0.00       0.00          0          0          0
  distributiondivin:      60.02       0.00          6          0          0
  dualval          :       0.00       0.00          0          0          0
  farkasdiving     :       0.00       0.00          0          0          0
  feaspump         :      25.77       0.00          1          0          0
  fixandinfer      :       0.00       0.00          0          0          0
  fracdiving       :       9.24       0.00          6          0          0
  gins             :      34.59       0.00          3          0          0
  guideddiving     :      12.86       0.00          6          0          0
  indicator        :       0.00       0.00          0          0          0
  intdiving        :       0.00       0.00          0          0          0
  intshifting      :       3.34       0.00          3          0          0
  linesearchdiving :      10.94       0.00          6          0          0
  localbranching   :       0.00       0.00          0          0          0
  locks            :       0.55       0.00          1          0          0
  lpface           :       0.01       0.00          0          0          0
  mpec             :       0.00       0.00          0          0          0
  multistart       :       0.00       0.00          0          0          0
  mutation         :       0.00       0.00          0          0          0
  nlpdiving        :       0.00       0.00          0          0          0
  objpscostdiving  :    1643.58       0.00          2          0          0
  octane           :       0.00       0.00          0          0          0
  ofins            :       0.00       0.00          0          0          0
  oneopt           :       2.17       0.00          5          0          0
  proximity        :       0.00       0.00          0          0          0
  pscostdiving     :      36.27       0.00          7          0          0
  randrounding     :       4.05       0.00        305          0          0
  rens             :      10.25       0.00          1          0          0
  reoptsols        :       0.00       0.00          0          0          0
  repair           :       0.00       0.00          0          0          0
  rins             :      60.55       0.00          5          3          0
  rootsoldiving    :      47.21       0.00          2          0          0
  rounding         :      50.35       0.00       1770          1          1
  shiftandpropagate:       1.99       0.00          1          0          0
  shifting         :      27.57       0.00        303          0          0
  simplerounding   :       0.00       0.00          0          0          0
  subnlp           :       0.00       0.00          0          0          0
  trivial          :       1.16       0.00          2          0          0
  trivialnegation  :       0.00       0.00          0          0          0
  trysol           :       0.00       0.00          0          0          0
  twoopt           :       0.00       0.00          0          0          0
  undercover       :       0.00       0.00          0          0          0
  vbounds          :       0.08       0.00          0          0          0
  veclendiving     :       9.83       0.00          6          0          0
  zeroobj          :       0.00       0.00          0          0          0
  zirounding       :      23.81       0.00       1000          3          3
  other solutions  :          -          -          -          0          -
Diving Statistics  :      Calls      Nodes   LP Iters Backtracks  Conflicts   MinDepth   MaxDepth   AvgDepth  RoundSols  NLeafSols  MinSolDpt  MaxSolDpt  AvgSolDpt
  actconsdiving    :          0          -          -          -          -          -          -          -          -          -          -          -          -
  coefdiving       :          7       4907       9165        479         88        564        916      683.7          0          -          -          -          -
  conflictdiving   :          0          -          -          -          -          -          -          -          -          -          -          -          -
  distributiondivin:          6        765       1274         58         72        122        174      144.7          0          -          -          -          -
  farkasdiving     :          0          -          -          -          -          -          -          -          -          -          -          -          -
  fracdiving       :          6       3408        254        256         96        149        727      570.0          0          -          -          -          -
  guideddiving     :          6       4442        179        493        127        657        735      684.2          0          -          -          -          -
  linesearchdiving :          6       5522        184        285         40        863        929      898.8          0          -          -          -          -
  pscostdiving     :          7       1422      21026         18         56        156        296      226.0          0          -          -          -          -
  veclendiving     :          6       3337        229        442        123        107        614      508.5          0          -          -          -          -
Neighborhoods      :      Calls  SetupTime  SolveTime SolveNodes       Sols       Best       Exp3  EpsGreedy        UCB TgtFixRate  Opt  Inf Node Stal  Sol  Usr Othr Actv
  rens             :          4      21.55      35.87        224          2          2    0.00000   -1.00000    0.53804      0.900    0    1    0    3    0    0    0    1
  rins             :          0       0.00       0.00          0          0          0    0.00000   -1.00000    0.06305      0.900    0    0    0    0    0    0    0    1
  mutation         :          0       0.00       0.00          0          0          0    0.00000   -1.00000    0.06305      0.900    0    0    0    0    0    0    0    1
  localbranching   :          0       0.00       0.00          0          0          0    0.00000   -1.00000    0.06305      0.900    0    0    0    0    0    0    0    1
  crossover        :          0       0.00       0.00          0          0          0    0.00000   -1.00000    0.06305      0.900    0    0    0    0    0    0    0    1
  proximity        :          0       0.00       0.00          0          0          0    0.00000   -1.00000    0.06305      0.900    0    0    0    0    0    0    0    1
  zeroobjective    :          0       0.00       0.00          0          0          0    0.00000   -1.00000    0.06305      0.900    0    0    0    0    0    0    0    1
  dins             :          0       0.00       0.00          0          0          0    0.00000   -1.00000    0.06305      0.900    0    0    0    0    0    0    0    1
LP                 :       Time      Calls Iterations  Iter/call   Iter/sec  Time-0-It Calls-0-It    ItLimit
  primal LP        :     695.31        219          0       0.00       0.00     695.31        219
  dual LP          :    1824.37       3792     400660     125.09     219.62      50.62        589
  lex dual LP      :       0.00          0          0       0.00          -
  barrier LP       :       0.00          0          0       0.00          -       0.00          0
  resolve instable :       0.00          0          0       0.00          -
  diving/probing LP:    1734.51        947     273711     289.03     157.80
  strong branching :    1304.24       1584     313068     197.64     240.04          -          -        475
    (at root node) :          -         33       7269     220.27          -
  conflict analysis:      23.24        127       1070       8.43      46.04
B&B Tree           :
  number of runs   :          1
  nodes            :       2917 (2164 internal, 753 leaves)
  feasible leaves  :          0
  infeas. leaves   :        129
  objective leaves :        623
  nodes (total)    :       2917 (2164 internal, 753 leaves)
  nodes left       :       1125
  max depth        :        201
  max depth (total):        201
  backtracks       :        471 (16.1%)
  early backtracks :         44 (9.3%)
  nodes exc. ref.  :       1874 (64.2%)
  delayed cutoffs  :          1
  repropagations   :        355 (4559 domain reductions, 1 cutoffs)
  avg switch length:       6.09
  switching time   :     713.91
Root Node          :
  First LP value   : +5.18000000000000e+02
  First LP Iters   :       9898 (2667.92 Iter/sec)
  First LP Time    :       3.71
  Final Dual Bound : +6.24383333333333e+02
  Final Root Iters :      40149
  Root LP Estimate : +6.85906619276602e+02
Solution           :
  Solutions found  :         11 (7 improvements)
  First Solution   : +6.84000000000000e+02   (in run 1, after 302 nodes, 1153.77 seconds, depth 191, found by <zirounding>)
  Gap First Sol.   :       9.55 %
  Gap Last Sol.    :       5.90 %
  Primal Bound     : +6.64000000000000e+02   (in run 1, after 636 nodes, 1621.69 seconds, depth 18, found by <crossover>)
  Dual Bound       : +6.30772222222222e+02
  Gap              :       5.27 %
  Avg. Gap         :      20.54 % (147897.45 primal-dual integral)
  Tree Data        : 4329 nodes (3204 visited, 2164 inner, 1040 leaves, 1125 open), progress: 0.0000
Tree Estimation    :       estim       value       trend  resolution      smooth
  wbe              :  2181038078           -           -           -           -
  tree profile     : 16241556218155988992           -           -           -           -
  gap              :       32044     0.94969     0.00001           2       30511
  progress         :        6408     0.00000     0.00000           2        6395
  leaf-frequency   :        7942     0.32505     0.00012           2        8188
  ssg              :      544366     0.83507    -0.00001           2      516653
  open-nodes       :        6408  1119.00000     0.04471           2        6395


SCIP> checksol

check best solution
solution is feasible in original problem
Violation          :    absolute    relative
  bounds           : 0.00000e+00 0.00000e+00
  integrality      : 0.00000e+00           -
  LP rows          : 0.00000e+00 0.00000e+00
  constraints      : 0.00000e+00 0.00000e+00

SCIP> write sol /local/tmp/bzfhende-tmpdir/bzfhende.miplib2017.136_neos-5114902-kkasavu.scip.M640.enable_treeprofile.sol

written solution information to file </local/tmp/bzfhende-tmpdir/bzfhende.miplib2017.136_neos-5114902-kasavu.scip.M640.enable_treeprofile.sol>

SCIP> quit

Disabling tree profile data collection
Read MPS: 1
MIP has 710164 vars and 961170 constraints
Read SOL: 1
Objective value computed by solver: 664

Integrality tolerance: 1/10000
Linear tolerance: 1/10000
Objective tolerance: 1/10000

Check SOL: Integrality 1 Constraints 1 Objective 1
Maximum violations: Integrality 0 Constraints 0 Objective 0
@04 1566494112
-----------------------------
Do 22. Aug 19:15:12 CEST 2019
-----------------------------

=ready=
